Maximize
 obj: 200 VAR1 + 300 VAR3 + 100 VAR5 + 292 VAR4 + 88 VAR6
Subject To
 c1: 2 VAR3 + 3 VAR5 <= 40
 c2: 2 VAR4 + 3 VAR6 <= 35
 c3: 3 VAR1 + 1 VAR3 + 3 VAR5 + 1 VAR4 + 3 VAR6 <= 60
 c4: 3 VAR1 + 6 VAR3 + 2 VAR5 + 6 VAR4 + 2 VAR6 <= 200
 c5: 5 VAR1 + 4 VAR3 + 4 VAR4 <= 160
 c6: 1 VAR1 >= 10
 c7: 1 VAR3 + 1 VAR4 >= 10
 c8: 1 VAR5 + 1 VAR6 >= 5
Bounds
 0 <= VAR1 <= +inf
 0 <= VAR2 <= +inf
 0 <= VAR3 <= +inf
 0 <= VAR4 <= +inf
 0 <= VAR5 <= +inf
 0 <= VAR6 <= +inf
General
End
